02:06:26 INFO: starting simulation...
02:06:26 INFO: num_compartments: 3
02:06:26 INFO: num_products: 3
02:06:26 INFO: num_destinations: 2
02:06:26 INFO: capacity_compartments: [709.76270079 743.03787327 720.55267521]
02:06:26 INFO: size_package: [20.44883183 19.23654799 21.45894113]
02:06:26 INFO: demand: [array([14., 22., 23.]), array([ 7., 15., 10.])]
02:06:26 INFO: simulation end
02:06:26 INFO: getting data from instance...
02:06:26 INFO: SimpleTruckLoadingProblem
02:06:26 INFO: Academic license - for non-commercial use only - expires 2021-08-08
02:06:26 INFO: Using license file C:\Users\54498\gurobi.lic
02:06:26 INFO: Changed value of parameter MIPgap to 0.001
02:06:26 INFO:    Prev: 0.0001  Min: 0.0  Max: inf  Default: 0.0001
02:06:26 INFO: Changed value of parameter TimeLimit to 10.0
02:06:26 INFO:    Prev: inf  Min: 0.0  Max: inf  Default: inf
02:06:26 INFO: Parameter OutputFlag unchanged
02:06:26 INFO:    Value: 1  Min: 0  Max: 1  Default: 1
02:06:26 INFO: Changed value of parameter LogFile to ./logs/gurobi.log
02:06:26 INFO:    Prev:   Default: 
02:06:26 INFO: Gurobi Optimizer version 9.1.2 build v9.1.2rc0 (win64)
02:06:26 INFO: Thread count: 4 physical cores, 8 logical processors, using up to 8 threads
02:06:26 INFO: Optimize a model with 15 rows, 19 columns and 66 nonzeros
02:06:26 INFO: Model fingerprint: 0x40d54c6f
02:06:26 INFO: Variable types: 1 continuous, 18 integer (0 binary)
02:06:26 INFO: Coefficient statistics:
02:06:26 INFO:   Matrix range     [1e+00, 2e+01]
02:06:26 INFO:   Objective range  [1e+00, 1e+00]
02:06:26 INFO:   Bounds range     [0e+00, 0e+00]
02:06:26 INFO:   RHS range        [7e+02, 7e+02]
02:06:26 INFO: Found heuristic solution: objective -0.0000000
02:06:26 INFO: Presolve removed 6 rows and 0 columns
02:06:26 INFO: Presolve time: 0.00s
02:06:26 INFO: Presolved: 9 rows, 19 columns, 42 nonzeros
02:06:26 INFO: Variable types: 1 continuous, 18 integer (0 binary)
02:06:26 INFO: 
02:06:26 INFO: Root relaxation: objective 1.175216e+00, 17 iterations, 0.00 seconds
02:06:26 INFO: 
02:06:26 INFO:     Nodes    |    Current Node    |     Objective Bounds      |     Work
02:06:26 INFO:  Expl Unexpl |  Obj  Depth IntInf | Incumbent    BestBd   Gap | It/Node Time
02:06:26 INFO: 
02:06:26 INFO:      0     0    1.17522    0    8   -0.00000    1.17522      -     -    0s
02:06:26 INFO: H    0     0                       0.9285714    1.17522  26.6%     -    0s
02:06:26 INFO: H    0     0                       1.1304348    1.17522  3.96%     -    0s
02:06:26 INFO: H    0     0                       1.1363636    1.17522  3.42%     -    0s
02:06:26 INFO:      0     0    1.16434    0    9    1.13636    1.16434  2.46%     -    0s
02:06:26 INFO:      0     0    1.16434    0   10    1.13636    1.16434  2.46%     -    0s
02:06:26 INFO:      0     0    1.15876    0    8    1.13636    1.15876  1.97%     -    0s
02:06:26 INFO:      0     0    1.15876    0    8    1.13636    1.15876  1.97%     -    0s
02:06:26 INFO:      0     0    1.15631    0   10    1.13636    1.15631  1.76%     -    0s
02:06:26 INFO:      0     0    1.15631    0   10    1.13636    1.15631  1.76%     -    0s
02:06:27 INFO:      0     0    1.15522    0    8    1.13636    1.15522  1.66%     -    0s
02:06:27 INFO:      0     0    1.15373    0    7    1.13636    1.15373  1.53%     -    0s
02:06:27 INFO:      0     0    1.15317    0    8    1.13636    1.15317  1.48%     -    0s
02:06:27 INFO:      0     2    1.15317    0    8    1.13636    1.15317  1.48%     -    0s
02:06:27 INFO: 
02:06:27 INFO: Cutting planes:
02:06:27 INFO:   Gomory: 3
02:06:27 INFO:   MIR: 9
02:06:27 INFO:   StrongCG: 3
02:06:27 INFO: 
02:06:27 INFO: Explored 2306 nodes (4523 simplex iterations) in 0.25 seconds
02:06:27 INFO: Thread count was 8 (of 8 available processors)
02:06:27 INFO: 
02:06:27 INFO: Solution count 4: 1.13636 1.13043 0.928571 -0 
02:06:27 INFO: 
02:06:27 INFO: Optimal solution found (tolerance 1.00e-03)
02:06:27 INFO: Best objective 1.136363636364e+00, best bound 1.136363636364e+00, gap 0.0000%
